GLPSOL: GLPK LP/MIP Solver, v4.65
Parameter(s) specified in the command line:
 --model solver_drone.mod --data solver_drone_data_30.dat --output solver_drone_solution.log
 --log solver_drone_cmd_output.log --tmlim 30
Reading model section from solver_drone.mod...
41 lines were read
Reading data section from solver_drone_data_30.dat...
99 lines were read
Generating f...
Generating package_deliverd_once...
Generating package_well_delivered...
Generating time_spent_flying...
Generating autonomy_not_exceeded...
Generating check_time_max...
Model has been successfully generated
GLPK Integer Optimizer, v4.65
17805 rows, 17681 columns, 53611 non-zeros
17681 integer variables, 17670 of which are binary
Preprocessing...
134 rows, 17681 columns, 35940 non-zeros
17681 integer variables, 17670 of which are binary
Scaling...
 A: min|aij| =  1.000e+00  max|aij| =  1.312e+03  ratio =  1.312e+03
GM: min|aij| =  4.456e-01  max|aij| =  2.244e+00  ratio =  5.037e+00
EQ: min|aij| =  1.985e-01  max|aij| =  1.000e+00  ratio =  5.037e+00
2N: min|aij| =  1.016e-01  max|aij| =  1.000e+00  ratio =  9.846e+00
Constructing initial basis...
Size of triangular part is 134
Solving LP relaxation...
GLPK Simplex Optimizer, v4.65
134 rows, 17681 columns, 35940 non-zeros
      0: obj =   0.000000000e+00 inf =   1.098e+03 (1)
    237: obj =   3.512000000e+03 inf =   3.473e-13 (0) 1
*   291: obj =   3.512000000e+03 inf =   2.675e-13 (0)
OPTIMAL LP SOLUTION FOUND
Integer optimization begins...
Long-step dual simplex will be used
+   291: mip =     not found yet >=              -inf        (1; 0)
+  5127: >>>>>   4.148000000e+03 >=   3.512000000e+03  15.3% (176; 0)
+  7399: >>>>>   4.140000000e+03 >=   3.512000000e+03  15.2% (207; 106)
+  9961: >>>>>   4.116000000e+03 >=   3.512000000e+03  14.7% (276; 142)
+ 11546: >>>>>   3.976000000e+03 >=   3.512000000e+03  11.7% (303; 240)
+ 13315: >>>>>   3.972000000e+03 >=   3.512000000e+03  11.6% (307; 358)
+ 15014: >>>>>   3.956000000e+03 >=   3.512000000e+03  11.2% (404; 410)
+ 16489: >>>>>   3.816000000e+03 >=   3.512000000e+03   8.0% (475; 417)
+ 16920: >>>>>   3.800000000e+03 >=   3.512000000e+03   7.6% (322; 822)
+ 17835: >>>>>   3.728000000e+03 >=   3.512000000e+03   5.8% (409; 839)
+ 18524: >>>>>   3.700000000e+03 >=   3.512000000e+03   5.1% (377; 993)
+ 19124: >>>>>   3.696000000e+03 >=   3.512000000e+03   5.0% (391; 1077)
+ 22487: >>>>>   3.648000000e+03 >=   3.512000000e+03   3.7% (509; 1079)
+ 23594: >>>>>   3.584000000e+03 >=   3.512000000e+03   2.0% (535; 1132)
+ 26599: mip =   3.584000000e+03 >=   3.512000000e+03   2.0% (656; 1496)
+ 28755: >>>>>   3.580000000e+03 >=   3.512000000e+03   1.9% (804; 1500)
+ 33903: >>>>>   3.544000000e+03 >=   3.512000000e+03   0.9% (1006; 1677)
+ 34351: mip =   3.544000000e+03 >=   3.512000000e+03   0.9% (680; 2321)
TIME LIMIT EXCEEDED; SEARCH TERMINATED
Time used:   30.1 secs
Memory used: 35.8 Mb (37549140 bytes)
The package 1 is delivered by the drone 3 to the house 1
The package 2 is delivered by the drone 8 to the house 1
The package 3 is delivered by the drone 10 to the house 1
The package 4 is delivered by the drone 2 to the house 2
The package 5 is delivered by the drone 2 to the house 2
The package 6 is delivered by the drone 10 to the house 2
The package 7 is delivered by the drone 6 to the house 3
The package 8 is delivered by the drone 2 to the house 3
The package 9 is delivered by the drone 10 to the house 4
The package 10 is delivered by the drone 9 to the house 4
The package 11 is delivered by the drone 3 to the house 5
The package 12 is delivered by the drone 1 to the house 5
The package 13 is delivered by the drone 6 to the house 6
The package 14 is delivered by the drone 9 to the house 6
The package 15 is delivered by the drone 4 to the house 7
The package 16 is delivered by the drone 6 to the house 8
The package 17 is delivered by the drone 1 to the house 8
The package 18 is delivered by the drone 4 to the house 10
The package 19 is delivered by the drone 1 to the house 10
The package 20 is delivered by the drone 10 to the house 10
The package 21 is delivered by the drone 7 to the house 11
The package 22 is delivered by the drone 2 to the house 11
The package 23 is delivered by the drone 4 to the house 11
The package 24 is delivered by the drone 6 to the house 12
The package 25 is delivered by the drone 1 to the house 12
The package 26 is delivered by the drone 10 to the house 12
The package 27 is delivered by the drone 8 to the house 14
The package 28 is delivered by the drone 5 to the house 14
The package 29 is delivered by the drone 5 to the house 15
The package 30 is delivered by the drone 10 to the house 15
The package 31 is delivered by the drone 6 to the house 16
The package 32 is delivered by the drone 5 to the house 17
The package 33 is delivered by the drone 1 to the house 17
The package 34 is delivered by the drone 3 to the house 19
The package 35 is delivered by the drone 5 to the house 19
The package 36 is delivered by the drone 8 to the house 19
The package 37 is delivered by the drone 3 to the house 20
The package 38 is delivered by the drone 4 to the house 20
The package 39 is delivered by the drone 2 to the house 21
The package 40 is delivered by the drone 4 to the house 21
The package 41 is delivered by the drone 7 to the house 21
The package 42 is delivered by the drone 7 to the house 23
The package 43 is delivered by the drone 1 to the house 23
The package 44 is delivered by the drone 9 to the house 24
The package 45 is delivered by the drone 1 to the house 24
The package 46 is delivered by the drone 8 to the house 24
The package 47 is delivered by the drone 5 to the house 25
The package 48 is delivered by the drone 1 to the house 25
The package 49 is delivered by the drone 10 to the house 26
The package 50 is delivered by the drone 9 to the house 27
The package 51 is delivered by the drone 9 to the house 28
The package 52 is delivered by the drone 6 to the house 28
The package 53 is delivered by the drone 4 to the house 28
The package 54 is delivered by the drone 5 to the house 29
The package 55 is delivered by the drone 8 to the house 29
The package 56 is delivered by the drone 3 to the house 29
The package 57 is delivered by the drone 7 to the house 31
Model has been successfully processed
Writing MIP solution to 'solver_drone_solution.log'...
